(declare-rel fail ())
(declare-rel inv2 (Int Int Int Int Int Int Int Int))
(declare-var A Int)
(declare-var B Int)
(declare-var C Int)
(declare-var D Int)
(declare-var E Int)
(declare-var F Int)
(declare-var G Int)
(declare-var H Int)
(declare-var I Int)
(declare-var J Int)
(declare-var K Int)
(rule (=> (and (= I 0)
         (= F K)
         (= K 0)
         (= C (* 5530 D))
         (= E (* 1153 D))
         (= B (* 353 D))
         (= A (* 3530 D))
         (> D 0)
         (>= 5 D))
    (inv2 I F K E D C B A)))
(rule (let ((a!1 (and (inv2 I F K E D C B A)
                (= G (+ I 1))
                (= J (ite (>= I B) (+ F 2) (+ F 1)))
                (= H (ite (>= F E) (+ K 3) (+ K 2))))))
  (=> a!1 (inv2 G J H E D C B A))))
(rule (=> (and (inv2 I F K E D C B A) (> I A) (not (> K C))) fail))
(query fail)

